p tw 225 47251 2 
1 3 
1 4 
1 5 
1 6 
1 7 
1 8 
1 9 
1 10 
1 11 
1 12 
1 13 
1 14 
1 15 
1 16 
1 21 
1 31 
1 35 
1 46 
1 47 
1 61 
1 63 
1 76 
1 82 
1 91 
1 104 
1 106 
1 109 
1 121 
1 132 
1 136 
1 148 
1 151 
1 165 
1 166 
1 176 
1 181 
1 190 
1 196 
1 204 
1 211 
1 218 
2 3 
2 4 
2 5 
2 6 
2 7 
2 8 
2 9 
2 10 
2 11 
2 12 
2 13 
2 14 
2 15 
2 17 
2 25 
2 32 
2 34 
2 47 
2 53 
2 62 
2 67 
2 76 
2 77 
2 92 
2 95 
2 107 
2 119 
2 122 
2 123 
2 137 
2 141 
2 152 
2 161 
2 167 
2 178 
2 182 
2 192 
2 197 
2 210 
2 212 
2 219 
3 4 
3 5 
3 6 
3 7 
3 8 
3 9 
3 10 
3 11 
3 12 
3 13 
3 14 
3 15 
3 18 
3 23 
3 33 
3 37 
3 48 
3 51 
3 63 
3 65 
3 78 
3 79 
3 93 
3 101 
3 108 
3 114 
3 123 
3 134 
3 138 
3 150 
3 151 
3 153 
3 168 
3 177 
3 182 
3 183 
3 198 
3 208 
3 213 
3 220 
4 5 
4 6 
4 7 
4 8 
4 9 
4 10 
4 11 
4 12 
4 13 
4 14 
4 15 
4 19 
4 24 
4 32 
4 34 
4 48 
4 49 
4 64 
4 75 
4 79 
4 89 
4 94 
4 103 
4 109 
4 111 
4 124 
4 131 
4 139 
4 145 
4 154 
4 162 
4 166 
4 169 
4 184 
4 187 
4 199 
4 203 
4 214 
4 215 
5 6 
5 7 
5 8 
5 9 
5 10 
5 11 
5 12 
5 13 
5 14 
5 15 
5 20 
5 26 
5 35 
5 38 
5 49 
5 50 
5 65 
5 66 
5 80 
5 90 
5 95 
5 99 
5 110 
5 117 
5 125 
5 127 
5 136 
5 140 
5 155 
5 160 
5 170 
5 179 
5 185 
5 193 
5 197 
5 200 
5 213 
5 215 
6 7 
6 8 
6 9 
6 10 
6 11 
6 12 
6 13 
6 14 
6 15 
6 21 
6 27 
6 36 
6 44 
6 51 
6 52 
6 61 
6 66 
6 81 
6 85 
6 96 
6 105 
6 111 
6 118 
6 126 
6 128 
6 141 
6 146 
6 152 
6 156 
6 170 
6 171 
6 186 
6 189 
6 198 
6 201 
6 214 
6 216 
7 8 
7 9 
7 10 
7 11 
7 12 
7 13 
7 14 
7 15 
7 22 
7 29 
7 37 
7 45 
7 52 
7 55 
7 67 
7 68 
7 77 
7 82 
7 97 
7 102 
7 112 
7 116 
7 121 
7 127 
7 142 
7 144 
7 154 
7 157 
7 168 
7 172 
7 186 
7 187 
7 200 
7 202 
7 217 
7 223 
8 9 
8 10 
8 11 
8 12 
8 13 
8 14 
8 15 
8 22 
8 23 
8 36 
8 38 
8 50 
8 53 
8 64 
8 68 
8 78 
8 83 
8 92 
8 98 
8 106 
8 113 
8 128 
8 135 
8 143 
8 147 
8 158 
8 163 
8 173 
8 174 
8 188 
8 194 
8 203 
8 205 
8 218 
8 221 
9 10 
9 11 
9 12 
9 13 
9 14 
9 15 
9 19 
9 24 
9 33 
9 39 
9 54 
9 58 
9 69 
9 72 
9 84 
9 86 
9 99 
9 100 
9 113 
9 114 
9 122 
9 129 
9 142 
9 144 
9 156 
9 159 
9 174 
9 180 
9 185 
9 189 
9 204 
9 209 
9 211 
9 219 
10 11 
10 12 
10 13 
10 14 
10 15 
10 18 
10 25 
10 40 
10 43 
10 55 
10 60 
10 70 
10 74 
10 80 
10 85 
10 91 
10 100 
10 107 
10 115 
10 129 
10 130 
10 143 
10 145 
10 157 
10 160 
10 169 
10 175 
10 190 
10 191 
10 205 
10 207 
10 216 
10 220 
11 12 
11 13 
11 14 
11 15 
11 16 
11 26 
11 40 
11 41 
11 56 
11 59 
11 71 
11 73 
11 86 
11 87 
11 93 
11 101 
11 116 
11 120 
11 124 
11 131 
11 140 
11 146 
11 159 
11 161 
11 171 
11 176 
11 188 
11 191 
11 202 
11 206 
11 212 
11 221 
12 13 
12 14 
12 15 
12 17 
12 27 
12 31 
12 42 
12 54 
12 57 
12 71 
12 72 
12 87 
12 88 
12 96 
12 102 
12 110 
12 117 
12 130 
12 132 
12 138 
12 147 
12 162 
12 164 
12 173 
12 177 
12 192 
12 195 
12 199 
12 207 
12 217 
12 222 
13 14 
13 15 
13 28 
13 30 
13 42 
13 43 
13 56 
13 58 
13 69 
13 73 
13 83 
13 88 
13 97 
13 103 
13 115 
13 118 
13 125 
13 133 
13 139 
13 148 
13 153 
13 163 
13 167 
13 178 
13 181 
13 193 
13 201 
13 208 
13 223 
13 224 
14 15 
14 28 
14 29 
14 41 
14 44 
14 57 
14 59 
14 70 
14 74 
14 84 
14 89 
14 98 
14 104 
14 108 
14 119 
14 126 
14 134 
14 137 
14 149 
14 155 
14 164 
14 172 
14 179 
14 184 
14 194 
14 196 
14 209 
14 224 
14 225 
15 20 
15 30 
15 39 
15 45 
15 46 
15 60 
15 62 
15 75 
15 81 
15 90 
15 94 
15 105 
15 112 
15 120 
15 133 
15 135 
15 149 
15 150 
15 158 
15 165 
15 175 
15 180 
15 183 
15 195 
15 206 
15 210 
15 222 
15 225 
16 17 
16 18 
16 19 
16 20 
16 21 
16 22 
16 23 
16 24 
16 25 
16 26 
16 27 
16 28 
16 29 
16 30 
16 31 
16 40 
16 46 
16 59 
16 61 
16 73 
16 76 
16 87 
16 91 
16 93 
16 106 
16 120 
16 121 
16 124 
16 136 
16 140 
16 151 
16 159 
16 166 
16 171 
16 181 
16 188 
16 196 
16 202 
16 211 
16 212 
17 18 
17 19 
17 20 
17 21 
17 22 
17 23 
17 24 
17 25 
17 26 
17 27 
17 28 
17 29 
17 30 
17 31 
17 32 
17 47 
17 54 
17 62 
17 71 
17 77 
17 88 
17 92 
17 96 
17 107 
17 110 
17 122 
17 130 
17 137 
17 138 
17 152 
17 164 
17 167 
17 173 
17 182 
17 195 
17 197 
17 199 
17 212 
17 217 
18 19 
18 20 
18 21 
18 22 
18 23 
18 24 
18 25 
18 26 
18 27 
18 28 
18 29 
18 30 
18 33 
18 43 
18 48 
18 60 
18 63 
18 74 
18 78 
18 80 
18 91 
18 93 
18 107 
18 108 
18 123 
18 129 
18 138 
18 143 
18 153 
18 157 
18 168 
18 169 
18 183 
18 191 
18 198 
18 207 
18 213 
18 216 
19 20 
19 21 
19 22 
19 23 
19 24 
19 25 
19 26 
19 27 
19 28 
19 29 
19 30 
19 33 
19 34 
19 49 
19 58 
19 64 
19 72 
19 79 
19 86 
19 94 
19 100 
19 109 
19 113 
19 122 
19 124 
19 139 
19 142 
19 154 
19 156 
19 169 
19 180 
19 184 
19 185 
19 199 
19 209 
19 211 
19 214 
20 21 
20 22 
20 23 
20 24 
20 25 
20 26 
20 27 
20 28 
20 29 
20 30 
20 35 
20 39 
20 46 
20 50 
20 62 
20 65 
20 80 
20 81 
20 94 
20 95 
20 110 
20 112 
20 125 
20 133 
20 140 
20 149 
20 155 
20 158 
20 170 
20 175 
20 183 
20 185 
20 200 
20 206 
20 215 
20 222 
21 22 
21 23 
21 24 
21 25 
21 26 
21 27 
21 28 
21 29 
21 30 
21 35 
21 36 
21 47 
21 51 
21 63 
21 66 
21 81 
21 82 
21 96 
21 104 
21 109 
21 111 
21 126 
21 132 
21 141 
21 148 
21 156 
21 165 
21 171 
21 176 
21 186 
21 190 
21 201 
21 204 
21 216 
21 218 
22 23 
22 24 
22 25 
22 26 
22 27 
22 28 
22 29 
22 30 
22 36 
22 37 
22 50 
22 52 
22 64 
22 67 
22 78 
22 82 
22 92 
22 97 
22 106 
22 112 
22 127 
22 135 
22 142 
22 147 
22 157 
22 163 
22 172 
22 174 
22 187 
22 194 
22 202 
22 205 
22 217 
22 221 
23 24 
23 25 
23 26 
23 27 
23 28 
23 29 
23 30 
23 37 
23 38 
23 51 
23 53 
23 65 
23 68 
23 79 
23 83 
23 98 
23 101 
23 113 
23 114 
23 128 
23 134 
23 143 
23 150 
23 151 
23 158 
23 173 
23 177 
23 182 
23 188 
23 203 
23 208 
23 218 
23 220 
24 25 
24 26 
24 27 
24 28 
24 29 
24 30 
24 32 
24 39 
24 48 
24 54 
24 69 
24 75 
24 84 
24 89 
24 99 
24 103 
24 111 
24 114 
24 129 
24 131 
24 144 
24 145 
24 159 
24 162 
24 166 
24 174 
24 187 
24 189 
24 203 
24 204 
24 215 
24 219 
25 26 
25 27 
25 28 
25 29 
25 30 
25 34 
25 40 
25 53 
25 55 
25 67 
25 70 
25 76 
25 85 
25 95 
25 100 
25 115 
25 119 
25 123 
25 130 
25 141 
25 145 
25 160 
25 161 
25 175 
25 178 
25 190 
25 192 
25 205 
25 210 
25 219 
25 220 
26 27 
26 28 
26 29 
26 30 
26 38 
26 41 
26 49 
26 56 
26 66 
26 71 
26 86 
26 90 
26 99 
26 101 
26 116 
26 117 
26 127 
26 131 
26 136 
26 146 
26 160 
26 161 
26 176 
26 179 
26 191 
26 193 
26 197 
26 206 
26 213 
26 221 
27 28 
27 29 
27 30 
27 42 
27 44 
27 52 
27 57 
27 61 
27 72 
27 85 
27 87 
27 102 
27 105 
27 117 
27 118 
27 128 
27 132 
27 146 
27 147 
27 152 
27 162 
27 170 
27 177 
27 189 
27 192 
27 198 
27 207 
27 214 
27 222 
28 29 
28 30 
28 41 
28 43 
28 57 
28 58 
28 70 
28 73 
28 84 
28 88 
28 98 
28 103 
28 108 
28 118 
28 126 
28 133 
28 137 
28 148 
28 155 
28 163 
28 172 
28 178 
28 184 
28 193 
28 196 
28 208 
28 223 
28 225 
29 30 
29 44 
29 45 
29 55 
29 59 
29 68 
29 74 
29 77 
29 89 
29 102 
29 104 
29 116 
29 119 
29 121 
29 134 
29 144 
29 149 
29 154 
29 164 
29 168 
29 179 
29 186 
29 194 
29 200 
29 209 
29 223 
29 224 
30 42 
30 45 
30 56 
30 60 
30 69 
30 75 
30 83 
30 90 
30 97 
30 105 
30 115 
30 120 
30 125 
30 135 
30 139 
30 150 
30 153 
30 165 
30 167 
30 180 
30 181 
30 195 
30 201 
30 210 
30 224 
30 225 
31 32 
31 33 
31 34 
31 35 
31 36 
31 37 
31 38 
31 39 
31 40 
31 41 
31 42 
31 43 
31 44 
31 45 
31 46 
31 54 
31 61 
31 71 
31 76 
31 88 
31 91 
31 96 
31 106 
31 110 
31 121 
31 130 
31 136 
31 138 
31 151 
31 164 
31 166 
31 173 
31 181 
31 195 
31 196 
31 199 
31 211 
31 217 
32 33 
32 34 
32 35 
32 36 
32 37 
32 38 
32 39 
32 40 
32 41 
32 42 
32 43 
32 44 
32 45 
32 47 
32 48 
32 62 
32 75 
32 77 
32 89 
32 92 
32 103 
32 107 
32 111 
32 122 
32 131 
32 137 
32 145 
32 152 
32 162 
32 166 
32 167 
32 182 
32 187 
32 197 
32 203 
32 212 
32 215 
33 34 
33 35 
33 36 
33 37 
33 38 
33 39 
33 40 
33 41 
33 42 
33 43 
33 44 
33 45 
33 48 
33 58 
33 63 
33 72 
33 78 
33 86 
33 93 
33 100 
33 108 
33 113 
33 122 
33 123 
33 138 
33 142 
33 153 
33 156 
33 168 
33 180 
33 183 
33 185 
33 198 
33 209 
33 211 
33 213 
34 35 
34 36 
34 37 
34 38 
34 39 
34 40 
34 41 
34 42 
34 43 
34 44 
34 45 
34 49 
34 53 
34 64 
34 67 
34 76 
34 79 
34 94 
34 95 
34 109 
34 119 
34 123 
34 124 
34 139 
34 141 
34 154 
34 161 
34 169 
34 178 
34 184 
34 192 
34 199 
34 210 
34 214 
34 219 
35 36 
35 37 
35 38 
35 39 
35 40 
35 41 
35 42 
35 43 
35 44 
35 45 
35 47 
35 50 
35 63 
35 65 
35 80 
35 82 
35 95 
35 104 
35 109 
35 110 
35 125 
35 132 
35 140 
35 148 
35 155 
35 165 
35 170 
35 176 
35 185 
35 190 
35 200 
35 204 
35 215 
35 218 
36 37 
36 38 
36 39 
36 40 
36 41 
36 42 
36 43 
36 44 
36 45 
36 50 
36 51 
36 64 
36 66 
36 78 
36 81 
36 92 
36 96 
36 106 
36 111 
36 126 
36 135 
36 141 
36 147 
36 156 
36 163 
36 171 
36 174 
36 186 
36 194 
36 201 
36 205 
36 216 
36 221 
37 38 
37 39 
37 40 
37 41 
37 42 
37 43 
37 44 
37 45 
37 51 
37 52 
37 65 
37 67 
37 79 
37 82 
37 97 
37 101 
37 112 
37 114 
37 127 
37 134 
37 142 
37 150 
37 151 
37 157 
37 172 
37 177 
37 182 
37 187 
37 202 
37 208 
37 217 
37 220 
38 39 
38 40 
38 41 
38 42 
38 43 
38 44 
38 45 
38 49 
38 53 
38 66 
38 68 
38 83 
38 90 
38 98 
38 99 
38 113 
38 117 
38 127 
38 128 
38 136 
38 143 
38 158 
38 160 
38 173 
38 179 
38 188 
38 193 
38 197 
38 203 
38 213 
38 218 
39 40 
39 41 
39 42 
39 43 
39 44 
39 45 
39 46 
39 54 
39 62 
39 69 
39 81 
39 84 
39 94 
39 99 
39 112 
39 114 
39 129 
39 133 
39 144 
39 149 
39 158 
39 159 
39 174 
39 175 
39 183 
39 189 
39 204 
39 206 
39 219 
39 222 
40 41 
40 42 
40 43 
40 44 
40 45 
40 55 
40 59 
40 70 
40 73 
40 85 
40 87 
40 93 
40 100 
40 115 
40 120 
40 124 
40 130 
40 140 
40 145 
40 159 
40 160 
40 171 
40 175 
40 188 
40 190 
40 202 
40 205 
40 212 
40 220 
41 42 
41 43 
41 44 
41 45 
41 56 
41 57 
41 70 
41 71 
41 84 
41 86 
41 98 
41 101 
41 108 
41 116 
41 126 
41 131 
41 137 
41 146 
41 155 
41 161 
41 172 
41 176 
41 184 
41 191 
41 196 
41 206 
41 221 
41 225 
42 43 
42 44 
42 45 
42 56 
42 57 
42 69 
42 72 
42 83 
42 87 
42 97 
42 102 
42 115 
42 117 
42 125 
42 132 
42 139 
42 147 
42 153 
42 162 
42 167 
42 177 
42 181 
42 192 
42 201 
42 207 
42 222 
42 224 
43 44 
43 45 
43 58 
43 60 
43 73 
43 74 
43 80 
43 88 
43 91 
43 103 
43 107 
43 118 
43 129 
43 133 
43 143 
43 148 
43 157 
43 163 
43 169 
43 178 
43 191 
43 193 
43 207 
43 208 
43 216 
43 223 
44 45 
44 52 
44 59 
44 61 
44 74 
44 85 
44 89 
44 104 
44 105 
44 118 
44 119 
44 128 
44 134 
44 146 
44 149 
44 152 
44 164 
44 170 
44 179 
44 189 
44 194 
44 198 
44 209 
44 214 
44 224 
45 55 
45 60 
45 68 
45 75 
45 77 
45 90 
45 102 
45 105 
45 116 
45 120 
45 121 
45 135 
45 144 
45 150 
45 154 
45 165 
45 168 
45 180 
45 186 
45 195 
45 200 
45 210 
45 223 
45 225 
46 47 
46 48 
46 49 
46 50 
46 51 
46 52 
46 53 
46 54 
46 55 
46 56 
46 57 
46 58 
46 59 
46 60 
46 61 
46 62 
46 76 
46 81 
46 91 
46 94 
46 106 
46 112 
46 121 
46 133 
46 136 
46 149 
46 151 
46 158 
46 166 
46 175 
46 181 
46 183 
46 196 
46 206 
46 211 
46 222 
47 48 
47 49 
47 50 
47 51 
47 52 
47 53 
47 54 
47 55 
47 56 
47 57 
47 58 
47 59 
47 60 
47 62 
47 63 
47 77 
47 82 
47 92 
47 104 
47 107 
47 109 
47 122 
47 132 
47 137 
47 148 
47 152 
47 165 
47 167 
47 176 
47 182 
47 190 
47 197 
47 204 
47 212 
47 218 
48 49 
48 50 
48 51 
48 52 
48 53 
48 54 
48 55 
48 56 
48 57 
48 58 
48 59 
48 60 
48 63 
48 75 
48 78 
48 89 
48 93 
48 103 
48 108 
48 111 
48 123 
48 131 
48 138 
48 145 
48 153 
48 162 
48 166 
48 168 
48 183 
48 187 
48 198 
48 203 
48 213 
48 215 
49 50 
49 51 
49 52 
49 53 
49 54 
49 55 
49 56 
49 57 
49 58 
49 59 
49 60 
49 64 
49 66 
49 79 
49 90 
49 94 
49 99 
49 109 
49 117 
49 124 
49 127 
49 136 
49 139 
49 154 
49 160 
49 169 
49 179 
49 184 
49 193 
49 197 
49 199 
49 213 
49 214 
50 51 
50 52 
50 53 
50 54 
50 55 
50 56 
50 57 
50 58 
50 59 
50 60 
50 64 
50 65 
50 78 
50 80 
50 92 
50 95 
50 106 
50 110 
50 125 
50 135 
50 140 
50 147 
50 155 
50 163 
50 170 
50 174 
50 185 
50 194 
50 200 
50 205 
50 215 
50 221 
51 52 
51 53 
51 54 
51 55 
51 56 
51 57 
51 58 
51 59 
51 60 
51 65 
51 66 
51 79 
51 81 
51 96 
51 101 
51 111 
51 114 
51 126 
51 134 
51 141 
51 150 
51 151 
51 156 
51 171 
51 177 
51 182 
51 186 
51 201 
51 208 
51 216 
51 220 
52 53 
52 54 
52 55 
52 56 
52 57 
52 58 
52 59 
52 60 
52 61 
52 67 
52 82 
52 85 
52 97 
52 105 
52 112 
52 118 
52 127 
52 128 
52 142 
52 146 
52 152 
52 157 
52 170 
52 172 
52 187 
52 189 
52 198 
52 202 
52 214 
52 217 
53 54 
53 55 
53 56 
53 57 
53 58 
53 59 
53 60 
53 67 
53 68 
53 76 
53 83 
53 95 
53 98 
53 113 
53 119 
53 123 
53 128 
53 141 
53 143 
53 158 
53 161 
53 173 
53 178 
53 188 
53 192 
53 203 
53 210 
53 218 
53 219 
54 55 
54 56 
54 57 
54 58 
54 59 
54 60 
54 69 
54 71 
54 84 
54 88 
54 96 
54 99 
54 110 
54 114 
54 129 
54 130 
54 138 
54 144 
54 159 
54 164 
54 173 
54 174 
54 189 
54 195 
54 199 
54 204 
54 217 
54 219 
55 56 
55 57 
55 58 
55 59 
55 60 
55 68 
55 70 
55 77 
55 85 
55 100 
55 102 
55 115 
55 116 
55 121 
55 130 
55 144 
55 145 
55 154 
55 160 
55 168 
55 175 
55 186 
55 190 
55 200 
55 205 
55 220 
55 223 
56 57 
56 58 
56 59 
56 60 
56 69 
56 71 
56 83 
56 86 
56 97 
56 101 
56 115 
56 116 
56 125 
56 131 
56 139 
56 146 
56 153 
56 161 
56 167 
56 176 
56 181 
56 191 
56 201 
56 206 
56 221 
56 224 
57 58 
57 59 
57 60 
57 70 
57 72 
57 84 
57 87 
57 98 
57 102 
57 108 
57 117 
57 126 
57 132 
57 137 
57 147 
57 155 
57 162 
57 172 
57 177 
57 184 
57 192 
57 196 
57 207 
57 222 
57 225 
58 59 
58 60 
58 72 
58 73 
58 86 
58 88 
58 100 
58 103 
58 113 
58 118 
58 122 
58 133 
58 142 
58 148 
58 156 
58 163 
58 178 
58 180 
58 185 
58 193 
58 208 
58 209 
58 211 
58 223 
59 60 
59 73 
59 74 
59 87 
59 89 
59 93 
59 104 
59 119 
59 120 
59 124 
59 134 
59 140 
59 149 
59 159 
59 164 
59 171 
59 179 
59 188 
59 194 
59 202 
59 209 
59 212 
59 224 
60 74 
60 75 
60 80 
60 90 
60 91 
60 105 
60 107 
60 120 
60 129 
60 135 
60 143 
60 150 
60 157 
60 165 
60 169 
60 180 
60 191 
60 195 
60 207 
60 210 
60 216 
60 225 
61 62 
61 63 
61 64 
61 65 
61 66 
61 67 
61 68 
61 69 
61 70 
61 71 
61 72 
61 73 
61 74 
61 75 
61 76 
61 85 
61 91 
61 105 
61 106 
61 118 
61 121 
61 128 
61 136 
61 146 
61 151 
61 152 
61 166 
61 170 
61 181 
61 189 
61 196 
61 198 
61 211 
61 214 
62 63 
62 64 
62 65 
62 66 
62 67 
62 68 
62 69 
62 70 
62 71 
62 72 
62 73 
62 74 
62 75 
62 77 
62 81 
62 92 
62 94 
62 107 
62 112 
62 122 
62 133 
62 137 
62 149 
62 152 
62 158 
62 167 
62 175 
62 182 
62 183 
62 197 
62 206 
62 212 
62 222 
63 64 
63 65 
63 66 
63 67 
63 68 
63 69 
63 70 
63 71 
63 72 
63 73 
63 74 
63 75 
63 78 
63 82 
63 93 
63 104 
63 108 
63 109 
63 123 
63 132 
63 138 
63 148 
63 153 
63 165 
63 168 
63 176 
63 183 
63 190 
63 198 
63 204 
63 213 
63 218 
64 65 
64 66 
64 67 
64 68 
64 69 
64 70 
64 71 
64 72 
64 73 
64 74 
64 75 
64 78 
64 79 
64 92 
64 94 
64 106 
64 109 
64 124 
64 135 
64 139 
64 147 
64 154 
64 163 
64 169 
64 174 
64 184 
64 194 
64 199 
64 205 
64 214 
64 221 
65 66 
65 67 
65 68 
65 69 
65 70 
65 71 
65 72 
65 73 
65 74 
65 75 
65 79 
65 80 
65 95 
65 101 
65 110 
65 114 
65 125 
65 134 
65 140 
65 150 
65 151 
65 155 
65 170 
65 177 
65 182 
65 185 
65 200 
65 208 
65 215 
65 220 
66 67 
66 68 
66 69 
66 70 
66 71 
66 72 
66 73 
66 74 
66 75 
66 81 
66 90 
66 96 
66 99 
66 111 
66 117 
66 126 
66 127 
66 136 
66 141 
66 156 
66 160 
66 171 
66 179 
66 186 
66 193 
66 197 
66 201 
66 213 
66 216 
67 68 
67 69 
67 70 
67 71 
67 72 
67 73 
67 74 
67 75 
67 76 
67 82 
67 95 
67 97 
67 112 
67 119 
67 123 
67 127 
67 141 
67 142 
67 157 
67 161 
67 172 
67 178 
67 187 
67 192 
67 202 
67 210 
67 217 
67 219 
68 69 
68 70 
68 71 
68 72 
68 73 
68 74 
68 75 
68 77 
68 83 
68 98 
68 102 
68 113 
68 116 
68 121 
68 128 
68 143 
68 144 
68 154 
68 158 
68 168 
68 173 
68 186 
68 188 
68 200 
68 203 
68 218 
68 223 
69 70 
69 71 
69 72 
69 73 
69 74 
69 75 
69 83 
69 84 
69 97 
69 99 
69 114 
69 115 
69 125 
69 129 
69 139 
69 144 
69 153 
69 159 
69 167 
69 174 
69 181 
69 189 
69 201 
69 204 
69 219 
69 224 
70 71 
70 72 
70 73 
70 74 
70 75 
70 84 
70 85 
70 98 
70 100 
70 108 
70 115 
70 126 
70 130 
70 137 
70 145 
70 155 
70 160 
70 172 
70 175 
70 184 
70 190 
70 196 
70 205 
70 220 
70 225 
71 72 
71 73 
71 74 
71 75 
71 86 
71 88 
71 96 
71 101 
71 110 
71 116 
71 130 
71 131 
71 138 
71 146 
71 161 
71 164 
71 173 
71 176 
71 191 
71 195 
71 199 
71 206 
71 217 
71 221 
72 73 
72 74 
72 75 
72 86 
72 87 
72 100 
72 102 
72 113 
72 117 
72 122 
72 132 
72 142 
72 147 
72 156 
72 162 
72 177 
72 180 
72 185 
72 192 
72 207 
72 209 
72 211 
72 222 
73 74 
73 75 
73 87 
73 88 
73 93 
73 103 
73 118 
73 120 
73 124 
73 133 
73 140 
73 148 
73 159 
73 163 
73 171 
73 178 
73 188 
73 193 
73 202 
73 208 
73 212 
73 223 
74 75 
74 80 
74 89 
74 91 
74 104 
74 107 
74 119 
74 129 
74 134 
74 143 
74 149 
74 157 
74 164 
74 169 
74 179 
74 191 
74 194 
74 207 
74 209 
74 216 
74 224 
75 89 
75 90 
75 103 
75 105 
75 111 
75 120 
75 131 
75 135 
75 145 
75 150 
75 162 
75 165 
75 166 
75 180 
75 187 
75 195 
75 203 
75 210 
75 215 
75 225 
76 77 
76 78 
76 79 
76 80 
76 81 
76 82 
76 83 
76 84 
76 85 
76 86 
76 87 
76 88 
76 89 
76 90 
76 91 
76 95 
76 106 
76 119 
76 121 
76 123 
76 136 
76 141 
76 151 
76 161 
76 166 
76 178 
76 181 
76 192 
76 196 
76 210 
76 211 
76 219 
77 78 
77 79 
77 80 
77 81 
77 82 
77 83 
77 84 
77 85 
77 86 
77 87 
77 88 
77 89 
77 90 
77 92 
77 102 
77 107 
77 116 
77 121 
77 122 
77 137 
77 144 
77 152 
77 154 
77 167 
77 168 
77 182 
77 186 
77 197 
77 200 
77 212 
77 223 
78 79 
78 80 
78 81 
78 82 
78 83 
78 84 
78 85 
78 86 
78 87 
78 88 
78 89 
78 90 
78 92 
78 93 
78 106 
78 108 
78 123 
78 135 
78 138 
78 147 
78 153 
78 163 
78 168 
78 174 
78 183 
78 194 
78 198 
78 205 
78 213 
78 221 
79 80 
79 81 
79 82 
79 83 
79 84 
79 85 
79 86 
79 87 
79 88 
79 89 
79 90 
79 94 
79 101 
79 109 
79 114 
79 124 
79 134 
79 139 
79 150 
79 151 
79 154 
79 169 
79 177 
79 182 
79 184 
79 199 
79 208 
79 214 
79 220 
80 81 
80 82 
80 83 
80 84 
80 85 
80 86 
80 87 
80 88 
80 89 
80 90 
80 91 
80 95 
80 107 
80 110 
80 125 
80 129 
80 140 
80 143 
80 155 
80 157 
80 169 
80 170 
80 185 
80 191 
80 200 
80 207 
80 215 
80 216 
81 82 
81 83 
81 84 
81 85 
81 86 
81 87 
81 88 
81 89 
81 90 
81 94 
81 96 
81 111 
81 112 
81 126 
81 133 
81 141 
81 149 
81 156 
81 158 
81 171 
81 175 
81 183 
81 186 
81 201 
81 206 
81 216 
81 222 
82 83 
82 84 
82 85 
82 86 
82 87 
82 88 
82 89 
82 90 
82 97 
82 104 
82 109 
82 112 
82 127 
82 132 
82 142 
82 148 
82 157 
82 165 
82 172 
82 176 
82 187 
82 190 
82 202 
82 204 
82 217 
82 218 
83 84 
83 85 
83 86 
83 87 
83 88 
83 89 
83 90 
83 97 
83 98 
83 113 
83 115 
83 125 
83 128 
83 139 
83 143 
83 153 
83 158 
83 167 
83 173 
83 181 
83 188 
83 201 
83 203 
83 218 
83 224 
84 85 
84 86 
84 87 
84 88 
84 89 
84 90 
84 98 
84 99 
84 108 
84 114 
84 126 
84 129 
84 137 
84 144 
84 155 
84 159 
84 172 
84 174 
84 184 
84 189 
84 196 
84 204 
84 219 
84 225 
85 86 
85 87 
85 88 
85 89 
85 90 
85 100 
85 105 
85 115 
85 118 
85 128 
85 130 
85 145 
85 146 
85 152 
85 160 
85 170 
85 175 
85 189 
85 190 
85 198 
85 205 
85 214 
85 220 
86 87 
86 88 
86 89 
86 90 
86 100 
86 101 
86 113 
86 116 
86 122 
86 131 
86 142 
86 146 
86 156 
86 161 
86 176 
86 180 
86 185 
86 191 
86 206 
86 209 
86 211 
86 221 
87 88 
87 89 
87 90 
87 93 
87 102 
87 117 
87 120 
87 124 
87 132 
87 140 
87 147 
87 159 
87 162 
87 171 
87 177 
87 188 
87 192 
87 202 
87 207 
87 212 
87 222 
88 89 
88 90 
88 96 
88 103 
88 110 
88 118 
88 130 
88 133 
88 138 
88 148 
88 163 
88 164 
88 173 
88 178 
88 193 
88 195 
88 199 
88 208 
88 217 
88 223 
89 90 
89 103 
89 104 
89 111 
89 119 
89 131 
89 134 
89 145 
89 149 
89 162 
89 164 
89 166 
89 179 
89 187 
89 194 
89 203 
89 209 
89 215 
89 224 
90 99 
90 105 
90 117 
90 120 
90 127 
90 135 
90 136 
90 150 
90 160 
90 165 
90 179 
90 180 
90 193 
90 195 
90 197 
90 210 
90 213 
90 225 
91 92 
91 93 
91 94 
91 95 
91 96 
91 97 
91 98 
91 99 
91 100 
91 101 
91 102 
91 103 
91 104 
91 105 
91 106 
91 107 
91 121 
91 129 
91 136 
91 143 
91 151 
91 157 
91 166 
91 169 
91 181 
91 191 
91 196 
91 207 
91 211 
91 216 
92 93 
92 94 
92 95 
92 96 
92 97 
92 98 
92 99 
92 100 
92 101 
92 102 
92 103 
92 104 
92 105 
92 106 
92 107 
92 122 
92 135 
92 137 
92 147 
92 152 
92 163 
92 167 
92 174 
92 182 
92 194 
92 197 
92 205 
92 212 
92 221 
93 94 
93 95 
93 96 
93 97 
93 98 
93 99 
93 100 
93 101 
93 102 
93 103 
93 104 
93 105 
93 108 
93 120 
93 123 
93 124 
93 138 
93 140 
93 153 
93 159 
93 168 
93 171 
93 183 
93 188 
93 198 
93 202 
93 212 
93 213 
94 95 
94 96 
94 97 
94 98 
94 99 
94 100 
94 101 
94 102 
94 103 
94 104 
94 105 
94 109 
94 112 
94 124 
94 133 
94 139 
94 149 
94 154 
94 158 
94 169 
94 175 
94 183 
94 184 
94 199 
94 206 
94 214 
94 222 
95 96 
95 97 
95 98 
95 99 
95 100 
95 101 
95 102 
95 103 
95 104 
95 105 
95 110 
95 119 
95 123 
95 125 
95 140 
95 141 
95 155 
95 161 
95 170 
95 178 
95 185 
95 192 
95 200 
95 210 
95 215 
95 219 
96 97 
96 98 
96 99 
96 100 
96 101 
96 102 
96 103 
96 104 
96 105 
96 110 
96 111 
96 126 
96 130 
96 138 
96 141 
96 156 
96 164 
96 171 
96 173 
96 186 
96 195 
96 199 
96 201 
96 216 
96 217 
97 98 
97 99 
97 100 
97 101 
97 102 
97 103 
97 104 
97 105 
97 112 
97 115 
97 125 
97 127 
97 139 
97 142 
97 153 
97 157 
97 167 
97 172 
97 181 
97 187 
97 201 
97 202 
97 217 
97 224 
98 99 
98 100 
98 101 
98 102 
98 103 
98 104 
98 105 
98 108 
98 113 
98 126 
98 128 
98 137 
98 143 
98 155 
98 158 
98 172 
98 173 
98 184 
98 188 
98 196 
98 203 
98 218 
98 225 
99 100 
99 101 
99 102 
99 103 
99 104 
99 105 
99 114 
99 117 
99 127 
99 129 
99 136 
99 144 
99 159 
99 160 
99 174 
99 179 
99 189 
99 193 
99 197 
99 204 
99 213 
99 219 
100 101 
100 102 
100 103 
100 104 
100 105 
100 113 
100 115 
100 122 
100 130 
100 142 
100 145 
100 156 
100 160 
100 175 
100 180 
100 185 
100 190 
100 205 
100 209 
100 211 
100 220 
101 102 
101 103 
101 104 
101 105 
101 114 
101 116 
101 131 
101 134 
101 146 
101 150 
101 151 
101 161 
101 176 
101 177 
101 182 
101 191 
101 206 
101 208 
101 220 
101 221 
102 103 
102 104 
102 105 
102 116 
102 117 
102 121 
102 132 
102 144 
102 147 
102 154 
102 162 
102 168 
102 177 
102 186 
102 192 
102 200 
102 207 
102 222 
102 223 
103 104 
103 105 
103 111 
103 118 
103 131 
103 133 
103 145 
103 148 
103 162 
103 163 
103 166 
103 178 
103 187 
103 193 
103 203 
103 208 
103 215 
103 223 
104 105 
104 109 
104 119 
104 132 
104 134 
104 148 
104 149 
104 164 
104 165 
104 176 
104 179 
104 190 
104 194 
104 204 
104 209 
104 218 
104 224 
105 118 
105 120 
105 128 
105 135 
105 146 
105 150 
105 152 
105 165 
105 170 
105 180 
105 189 
105 195 
105 198 
105 210 
105 214 
105 225 
106 107 
106 108 
106 109 
106 110 
106 111 
106 112 
106 113 
106 114 
106 115 
106 116 
106 117 
106 118 
106 119 
106 120 
106 121 
106 135 
106 136 
106 147 
106 151 
106 163 
106 166 
106 174 
106 181 
106 194 
106 196 
106 205 
106 211 
106 221 
107 108 
107 109 
107 110 
107 111 
107 112 
107 113 
107 114 
107 115 
107 116 
107 117 
107 118 
107 119 
107 120 
107 122 
107 129 
107 137 
107 143 
107 152 
107 157 
107 167 
107 169 
107 182 
107 191 
107 197 
107 207 
107 212 
107 216 
108 109 
108 110 
108 111 
108 112 
108 113 
108 114 
108 115 
108 116 
108 117 
108 118 
108 119 
108 120 
108 123 
108 126 
108 137 
108 138 
108 153 
108 155 
108 168 
108 172 
108 183 
108 184 
108 196 
108 198 
108 213 
108 225 
109 110 
109 111 
109 112 
109 113 
109 114 
109 115 
109 116 
109 117 
109 118 
109 119 
109 120 
109 124 
109 132 
109 139 
109 148 
109 154 
109 165 
109 169 
109 176 
109 184 
109 190 
109 199 
109 204 
109 214 
109 218 
110 111 
110 112 
110 113 
110 114 
110 115 
110 116 
110 117 
110 118 
110 119 
110 120 
110 125 
110 130 
110 138 
110 140 
110 155 
110 164 
110 170 
110 173 
110 185 
110 195 
110 199 
110 200 
110 215 
110 217 
111 112 
111 113 
111 114 
111 115 
111 116 
111 117 
111 118 
111 119 
111 120 
111 126 
111 131 
111 141 
111 145 
111 156 
111 162 
111 166 
111 171 
111 186 
111 187 
111 201 
111 203 
111 215 
111 216 
112 113 
112 114 
112 115 
112 116 
112 117 
112 118 
112 119 
112 120 
112 127 
112 133 
112 142 
112 149 
112 157 
112 158 
112 172 
112 175 
112 183 
112 187 
112 202 
112 206 
112 217 
112 222 
113 114 
113 115 
113 116 
113 117 
113 118 
113 119 
113 120 
113 122 
113 128 
113 142 
113 143 
113 156 
113 158 
113 173 
113 180 
113 185 
113 188 
113 203 
113 209 
113 211 
113 218 
114 115 
114 116 
114 117 
114 118 
114 119 
114 120 
114 129 
114 134 
114 144 
114 150 
114 151 
114 159 
114 174 
114 177 
114 182 
114 189 
114 204 
114 208 
114 219 
114 220 
115 116 
115 117 
115 118 
115 119 
115 120 
115 125 
115 130 
115 139 
115 145 
115 153 
115 160 
115 167 
115 175 
115 181 
115 190 
115 201 
115 205 
115 220 
115 224 
116 117 
116 118 
116 119 
116 120 
116 121 
116 131 
116 144 
116 146 
116 154 
116 161 
116 168 
116 176 
116 186 
116 191 
116 200 
116 206 
116 221 
116 223 
117 118 
117 119 
117 120 
117 127 
117 132 
117 136 
117 147 
117 160 
117 162 
117 177 
117 179 
117 192 
117 193 
117 197 
117 207 
117 213 
117 222 
118 119 
118 120 
118 128 
118 133 
118 146 
118 148 
118 152 
118 163 
118 170 
118 178 
118 189 
118 193 
118 198 
118 208 
118 214 
118 223 
119 120 
119 123 
119 134 
119 141 
119 149 
119 161 
119 164 
119 178 
119 179 
119 192 
119 194 
119 209 
119 210 
119 219 
119 224 
120 124 
120 135 
120 140 
120 150 
120 159 
120 165 
120 171 
120 180 
120 188 
120 195 
120 202 
120 210 
120 212 
120 225 
121 122 
121 123 
121 124 
121 125 
121 126 
121 127 
121 128 
121 129 
121 130 
121 131 
121 132 
121 133 
121 134 
121 135 
121 136 
121 144 
121 151 
121 154 
121 166 
121 168 
121 181 
121 186 
121 196 
121 200 
121 211 
121 223 
122 123 
122 124 
122 125 
122 126 
122 127 
122 128 
122 129 
122 130 
122 131 
122 132 
122 133 
122 134 
122 135 
122 137 
122 142 
122 152 
122 156 
122 167 
122 180 
122 182 
122 185 
122 197 
122 209 
122 211 
122 212 
123 124 
123 125 
123 126 
123 127 
123 128 
123 129 
123 130 
123 131 
123 132 
123 133 
123 134 
123 135 
123 138 
123 141 
123 153 
123 161 
123 168 
123 178 
123 183 
123 192 
123 198 
123 210 
123 213 
123 219 
124 125 
124 126 
124 127 
124 128 
124 129 
124 130 
124 131 
124 132 
124 133 
124 134 
124 135 
124 139 
124 140 
124 154 
124 159 
124 169 
124 171 
124 184 
124 188 
124 199 
124 202 
124 212 
124 214 
125 126 
125 127 
125 128 
125 129 
125 130 
125 131 
125 132 
125 133 
125 134 
125 135 
125 139 
125 140 
125 153 
125 155 
125 167 
125 170 
125 181 
125 185 
125 200 
125 201 
125 215 
125 224 
126 127 
126 128 
126 129 
126 130 
126 131 
126 132 
126 133 
126 134 
126 135 
126 137 
126 141 
126 155 
126 156 
126 171 
126 172 
126 184 
126 186 
126 196 
126 201 
126 216 
126 225 
127 128 
127 129 
127 130 
127 131 
127 132 
127 133 
127 134 
127 135 
127 136 
127 142 
127 157 
127 160 
127 172 
127 179 
127 187 
127 193 
127 197 
127 202 
127 213 
127 217 
128 129 
128 130 
128 131 
128 132 
128 133 
128 134 
128 135 
128 143 
128 146 
128 152 
128 158 
128 170 
128 173 
128 188 
128 189 
128 198 
128 203 
128 214 
128 218 
129 130 
129 131 
129 132 
129 133 
129 134 
129 135 
129 143 
129 144 
129 157 
129 159 
129 169 
129 174 
129 189 
129 191 
129 204 
129 207 
129 216 
129 219 
130 131 
130 132 
130 133 
130 134 
130 135 
130 138 
130 145 
130 160 
130 164 
130 173 
130 175 
130 190 
130 195 
130 199 
130 205 
130 217 
130 220 
131 132 
131 133 
131 134 
131 135 
131 145 
131 146 
131 161 
131 162 
131 166 
131 176 
131 187 
131 191 
131 203 
131 206 
131 215 
131 221 
132 133 
132 134 
132 135 
132 147 
132 148 
132 162 
132 165 
132 176 
132 177 
132 190 
132 192 
132 204 
132 207 
132 218 
132 222 
133 134 
133 135 
133 148 
133 149 
133 158 
133 163 
133 175 
133 178 
133 183 
133 193 
133 206 
133 208 
133 222 
133 223 
134 135 
134 149 
134 150 
134 151 
134 164 
134 177 
134 179 
134 182 
134 194 
134 208 
134 209 
134 220 
134 224 
135 147 
135 150 
135 163 
135 165 
135 174 
135 180 
135 194 
135 195 
135 205 
135 210 
135 221 
135 225 
136 137 
136 138 
136 139 
136 140 
136 141 
136 142 
136 143 
136 144 
136 145 
136 146 
136 147 
136 148 
136 149 
136 150 
136 151 
136 160 
136 166 
136 179 
136 181 
136 193 
136 196 
136 197 
136 211 
136 213 
137 138 
137 139 
137 140 
137 141 
137 142 
137 143 
137 144 
137 145 
137 146 
137 147 
137 148 
137 149 
137 150 
137 152 
137 155 
137 167 
137 172 
137 182 
137 184 
137 196 
137 197 
137 212 
137 225 
138 139 
138 140 
138 141 
138 142 
138 143 
138 144 
138 145 
138 146 
138 147 
138 148 
138 149 
138 150 
138 153 
138 164 
138 168 
138 173 
138 183 
138 195 
138 198 
138 199 
138 213 
138 217 
139 140 
139 141 
139 142 
139 143 
139 144 
139 145 
139 146 
139 147 
139 148 
139 149 
139 150 
139 153 
139 154 
139 167 
139 169 
139 181 
139 184 
139 199 
139 201 
139 214 
139 224 
140 141 
140 142 
140 143 
140 144 
140 145 
140 146 
140 147 
140 148 
140 149 
140 150 
140 155 
140 159 
140 170 
140 171 
140 185 
140 188 
140 200 
140 202 
140 212 
140 215 
141 142 
141 143 
141 144 
141 145 
141 146 
141 147 
141 148 
141 149 
141 150 
141 156 
141 161 
141 171 
141 178 
141 186 
141 192 
141 201 
141 210 
141 216 
141 219 
142 143 
142 144 
142 145 
142 146 
142 147 
142 148 
142 149 
142 150 
142 156 
142 157 
142 172 
142 180 
142 185 
142 187 
142 202 
142 209 
142 211 
142 217 
143 144 
143 145 
143 146 
143 147 
143 148 
143 149 
143 150 
143 157 
143 158 
143 169 
143 173 
143 188 
143 191 
143 203 
143 207 
143 216 
143 218 
144 145 
144 146 
144 147 
144 148 
144 149 
144 150 
144 154 
144 159 
144 168 
144 174 
144 186 
144 189 
144 200 
144 204 
144 219 
144 223 
145 146 
145 147 
145 148 
145 149 
145 150 
145 160 
145 162 
145 166 
145 175 
145 187 
145 190 
145 203 
145 205 
145 215 
145 220 
146 147 
146 148 
146 149 
146 150 
146 152 
146 161 
146 170 
146 176 
146 189 
146 191 
146 198 
146 206 
146 214 
146 221 
147 148 
147 149 
147 150 
147 162 
147 163 
147 174 
147 177 
147 192 
147 194 
147 205 
147 207 
147 221 
147 222 
148 149 
148 150 
148 163 
148 165 
148 176 
148 178 
148 190 
148 193 
148 204 
148 208 
148 218 
148 223 
149 150 
149 158 
149 164 
149 175 
149 179 
149 183 
149 194 
149 206 
149 209 
149 222 
149 224 
150 151 
150 165 
150 177 
150 180 
150 182 
150 195 
150 208 
150 210 
150 220 
150 225 
151 152 
151 153 
151 154 
151 155 
151 156 
151 157 
151 158 
151 159 
151 160 
151 161 
151 162 
151 163 
151 164 
151 165 
151 166 
151 177 
151 181 
151 182 
151 196 
151 208 
151 211 
151 220 
152 153 
152 154 
152 155 
152 156 
152 157 
152 158 
152 159 
152 160 
152 161 
152 162 
152 163 
152 164 
152 165 
152 167 
152 170 
152 182 
152 189 
152 197 
152 198 
152 212 
152 214 
153 154 
153 155 
153 156 
153 157 
153 158 
153 159 
153 160 
153 161 
153 162 
153 163 
153 164 
153 165 
153 167 
153 168 
153 181 
153 183 
153 198 
153 201 
153 213 
153 224 
154 155 
154 156 
154 157 
154 158 
154 159 
154 160 
154 161 
154 162 
154 163 
154 164 
154 165 
154 168 
154 169 
154 184 
154 186 
154 199 
154 200 
154 214 
154 223 
155 156 
155 157 
155 158 
155 159 
155 160 
155 161 
155 162 
155 163 
155 164 
155 165 
155 170 
155 172 
155 184 
155 185 
155 196 
155 200 
155 215 
155 225 
156 157 
156 158 
156 159 
156 160 
156 161 
156 162 
156 163 
156 164 
156 165 
156 171 
156 180 
156 185 
156 186 
156 201 
156 209 
156 211 
156 216 
157 158 
157 159 
157 160 
157 161 
157 162 
157 163 
157 164 
157 165 
157 169 
157 172 
157 187 
157 191 
157 202 
157 207 
157 216 
157 217 
158 159 
158 160 
158 161 
158 162 
158 163 
158 164 
158 165 
158 173 
158 175 
158 183 
158 188 
158 203 
158 206 
158 218 
158 222 
159 160 
159 161 
159 162 
159 163 
159 164 
159 165 
159 171 
159 174 
159 188 
159 189 
159 202 
159 204 
159 212 
159 219 
160 161 
160 162 
160 163 
160 164 
160 165 
160 175 
160 179 
160 190 
160 193 
160 197 
160 205 
160 213 
160 220 
161 162 
161 163 
161 164 
161 165 
161 176 
161 178 
161 191 
161 192 
161 206 
161 210 
161 219 
161 221 
162 163 
162 164 
162 165 
162 166 
162 177 
162 187 
162 192 
162 203 
162 207 
162 215 
162 222 
163 164 
163 165 
163 174 
163 178 
163 193 
163 194 
163 205 
163 208 
163 221 
163 223 
164 165 
164 173 
164 179 
164 194 
164 195 
164 199 
164 209 
164 217 
164 224 
165 176 
165 180 
165 190 
165 195 
165 204 
165 210 
165 218 
165 225 
166 167 
166 168 
166 169 
166 170 
166 171 
166 172 
166 173 
166 174 
166 175 
166 176 
166 177 
166 178 
166 179 
166 180 
166 181 
166 187 
166 196 
166 203 
166 211 
166 215 
167 168 
167 169 
167 170 
167 171 
167 172 
167 173 
167 174 
167 175 
167 176 
167 177 
167 178 
167 179 
167 180 
167 181 
167 182 
167 197 
167 201 
167 212 
167 224 
168 169 
168 170 
168 171 
168 172 
168 173 
168 174 
168 175 
168 176 
168 177 
168 178 
168 179 
168 180 
168 183 
168 186 
168 198 
168 200 
168 213 
168 223 
169 170 
169 171 
169 172 
169 173 
169 174 
169 175 
169 176 
169 177 
169 178 
169 179 
169 180 
169 184 
169 191 
169 199 
169 207 
169 214 
169 216 
170 171 
170 172 
170 173 
170 174 
170 175 
170 176 
170 177 
170 178 
170 179 
170 180 
170 185 
170 189 
170 198 
170 200 
170 214 
170 215 
171 172 
171 173 
171 174 
171 175 
171 176 
171 177 
171 178 
171 179 
171 180 
171 186 
171 188 
171 201 
171 202 
171 212 
171 216 
172 173 
172 174 
172 175 
172 176 
172 177 
172 178 
172 179 
172 180 
172 184 
172 187 
172 196 
172 202 
172 217 
172 225 
173 174 
173 175 
173 176 
173 177 
173 178 
173 179 
173 180 
173 188 
173 195 
173 199 
173 203 
173 217 
173 218 
174 175 
174 176 
174 177 
174 178 
174 179 
174 180 
174 189 
174 194 
174 204 
174 205 
174 219 
174 221 
175 176 
175 177 
175 178 
175 179 
175 180 
175 183 
175 190 
175 205 
175 206 
175 220 
175 222 
176 177 
176 178 
176 179 
176 180 
176 190 
176 191 
176 204 
176 206 
176 218 
176 221 
177 178 
177 179 
177 180 
177 182 
177 192 
177 207 
177 208 
177 220 
177 222 
178 179 
178 180 
178 192 
178 193 
178 208 
178 210 
178 219 
178 223 
179 180 
179 193 
179 194 
179 197 
179 209 
179 213 
179 224 
180 185 
180 195 
180 209 
180 210 
180 211 
180 225 
181 182 
181 183 
181 184 
181 185 
181 186 
181 187 
181 188 
181 189 
181 190 
181 191 
181 192 
181 193 
181 194 
181 195 
181 196 
181 201 
181 211 
181 224 
182 183 
182 184 
182 185 
182 186 
182 187 
182 188 
182 189 
182 190 
182 191 
182 192 
182 193 
182 194 
182 195 
182 197 
182 208 
182 212 
182 220 
183 184 
183 185 
183 186 
183 187 
183 188 
183 189 
183 190 
183 191 
183 192 
183 193 
183 194 
183 195 
183 198 
183 206 
183 213 
183 222 
184 185 
184 186 
184 187 
184 188 
184 189 
184 190 
184 191 
184 192 
184 193 
184 194 
184 195 
184 196 
184 199 
184 214 
184 225 
185 186 
185 187 
185 188 
185 189 
185 190 
185 191 
185 192 
185 193 
185 194 
185 195 
185 200 
185 209 
185 211 
185 215 
186 187 
186 188 
186 189 
186 190 
186 191 
186 192 
186 193 
186 194 
186 195 
186 200 
186 201 
186 216 
186 223 
187 188 
187 189 
187 190 
187 191 
187 192 
187 193 
187 194 
187 195 
187 202 
187 203 
187 215 
187 217 
188 189 
188 190 
188 191 
188 192 
188 193 
188 194 
188 195 
188 202 
188 203 
188 212 
188 218 
189 190 
189 191 
189 192 
189 193 
189 194 
189 195 
189 198 
189 204 
189 214 
189 219 
190 191 
190 192 
190 193 
190 194 
190 195 
190 204 
190 205 
190 218 
190 220 
191 192 
191 193 
191 194 
191 195 
191 206 
191 207 
191 216 
191 221 
192 193 
192 194 
192 195 
192 207 
192 210 
192 219 
192 222 
193 194 
193 195 
193 197 
193 208 
193 213 
193 223 
194 195 
194 205 
194 209 
194 221 
194 224 
195 199 
195 210 
195 217 
195 225 
196 197 
196 198 
196 199 
196 200 
196 201 
196 202 
196 203 
196 204 
196 205 
196 206 
196 207 
196 208 
196 209 
196 210 
196 211 
196 225 
197 198 
197 199 
197 200 
197 201 
197 202 
197 203 
197 204 
197 205 
197 206 
197 207 
197 208 
197 209 
197 210 
197 212 
197 213 
198 199 
198 200 
198 201 
198 202 
198 203 
198 204 
198 205 
198 206 
198 207 
198 208 
198 209 
198 210 
198 213 
198 214 
199 200 
199 201 
199 202 
199 203 
199 204 
199 205 
199 206 
199 207 
199 208 
199 209 
199 210 
199 214 
199 217 
200 201 
200 202 
200 203 
200 204 
200 205 
200 206 
200 207 
200 208 
200 209 
200 210 
200 215 
200 223 
201 202 
201 203 
201 204 
201 205 
201 206 
201 207 
201 208 
201 209 
201 210 
201 216 
201 224 
202 203 
202 204 
202 205 
202 206 
202 207 
202 208 
202 209 
202 210 
202 212 
202 217 
203 204 
203 205 
203 206 
203 207 
203 208 
203 209 
203 210 
203 215 
203 218 
204 205 
204 206 
204 207 
204 208 
204 209 
204 210 
204 218 
204 219 
205 206 
205 207 
205 208 
205 209 
205 210 
205 220 
205 221 
206 207 
206 208 
206 209 
206 210 
206 221 
206 222 
207 208 
207 209 
207 210 
207 216 
207 222 
208 209 
208 210 
208 220 
208 223 
209 210 
209 211 
209 224 
210 219 
210 225 
211 212 
211 213 
211 214 
211 215 
211 216 
211 217 
211 218 
211 219 
211 220 
211 221 
211 222 
211 223 
211 224 
211 225 
212 213 
212 214 
212 215 
212 216 
212 217 
212 218 
212 219 
212 220 
212 221 
212 222 
212 223 
212 224 
212 225 
213 214 
213 215 
213 216 
213 217 
213 218 
213 219 
213 220 
213 221 
213 222 
213 223 
213 224 
213 225 
214 215 
214 216 
214 217 
214 218 
214 219 
214 220 
214 221 
214 222 
214 223 
214 224 
214 225 
215 216 
215 217 
215 218 
215 219 
215 220 
215 221 
215 222 
215 223 
215 224 
215 225 
216 217 
216 218 
216 219 
216 220 
216 221 
216 222 
216 223 
216 224 
216 225 
217 218 
217 219 
217 220 
217 221 
217 222 
217 223 
217 224 
217 225 
218 219 
218 220 
218 221 
218 222 
218 223 
218 224 
218 225 
219 220 
219 221 
219 222 
219 223 
219 224 
219 225 
220 221 
220 222 
220 223 
220 224 
220 225 
221 222 
221 223 
221 224 
221 225 
222 223 
222 224 
222 225 
223 224 
223 225 
224 225 
